(set-info :source |printed by MathSAT|)
(declare-fun |main::tmp_var_2_int@2| () (_ BitVec 32))
(declare-fun |assume::cond@2| () (_ BitVec 32))
(declare-fun |main::local_4c@2| () (_ BitVec 32))
(declare-fun |main::__CPAchecker_TMP_0@3| () (_ BitVec 8))
(declare-fun |main::counter@5| () (_ BitVec 32))
(declare-fun |main::__CPAchecker_TMP_0@5| () (_ BitVec 8))
(declare-fun |main::p@5| () (_ BitVec 64))
(declare-fun |main::r@5| () (_ BitVec 64))
(declare-fun |main::_x@5| () (_ BitVec 32))
(declare-fun |main::b@5| () (_ BitVec 64))
(declare-fun |main::q@5| () (_ BitVec 64))
(declare-fun |main::s@5| () (_ BitVec 64))
(declare-fun |assume::cond@4| () (_ BitVec 32))
(declare-fun |main::iVar2@5| () (_ BitVec 32))
(declare-fun |main::bVar1@5| () (_ BitVec 8))
(declare-fun |main::counter@6| () (_ BitVec 32))
(declare-fun |main::p@6| () (_ BitVec 64))
(declare-fun |main::r@6| () (_ BitVec 64))
(declare-fun |main::_x@6| () (_ BitVec 32))
(declare-fun |main::iVar2@6| () (_ BitVec 32))
(declare-fun |main::bVar1@6| () (_ BitVec 8))
(declare-fun |main::counter@7| () (_ BitVec 32))
(assert (let ((.def_775 (= |main::b@5| |main::p@6|)))(let ((.def_776 (not .def_775)))(let ((.def_772 (= |main::__CPAchecker_TMP_0@5| |main::bVar1@6|)))(let ((.def_770 (= |main::iVar2@6| |main::counter@7|)))(let ((.def_762 (bvslt |main::counter@6| (_ bv1 32))))(let ((.def_763 (ite .def_762 (_ bv1 32) (_ bv0 32))))(let ((.def_764 (= .def_763 (_ bv0 32))))(let ((.def_765 (ite .def_764 (_ bv0 8) (_ bv1 8))))(let ((.def_767 (= .def_765 |main::bVar1@6|)))(let ((.def_758 (bvadd (_ bv1 32) |main::counter@6|)))(let ((.def_760 (= .def_758 |main::iVar2@6|)))(let ((.def_751 (bvneg |main::s@5|)))(let ((.def_704 ((_ sign_extend 32) |main::_x@5|)))(let ((.def_752 (bvadd .def_704 .def_751)))(let ((.def_753 ((_ extract 31 0) .def_752)))(let ((.def_755 (= .def_753 |main::_x@6|)))(let ((.def_745 (bvneg |main::q@5|)))(let ((.def_746 (bvadd |main::r@5| .def_745)))(let ((.def_748 (= .def_746 |main::r@6|)))(let ((.def_739 (bvneg |main::b@5|)))(let ((.def_740 (bvadd |main::p@5| .def_739)))(let ((.def_742 (= .def_740 |main::p@6|)))(let ((.def_734 (bvslt |main::p@5| |main::b@5|)))(let ((.def_736 (not .def_734)))(let ((.def_730 (= |main::p@5| |main::b@5|)))(let ((.def_732 (not .def_730)))(let ((.def_34 ((_ sign_extend 32) |main::tmp_var_2_int@2|)))(let ((.def_724 (bvmul .def_34 |main::r@5|)))(let ((.def_722 (bvmul |main::local_4c@2| |main::_x@5|)))(let ((.def_723 ((_ sign_extend 32) .def_722)))(let ((.def_725 (bvadd .def_723 .def_724)))(let ((.def_726 (= |main::p@5| .def_725)))(let ((.def_38 ((_ sign_extend 32) |main::local_4c@2|)))(let ((.def_716 (bvmul .def_38 |main::s@5|)))(let ((.def_715 (bvmul .def_34 |main::q@5|)))(let ((.def_717 (bvadd .def_715 .def_716)))(let ((.def_718 (= |main::b@5| .def_717)))(let ((.def_707 (bvmul |main::r@5| |main::s@5|)))(let ((.def_709 (bvneg .def_707)))(let ((.def_705 (bvmul |main::q@5| .def_704)))(let ((.def_710 (bvadd .def_705 .def_709)))(let ((.def_711 (= .def_710 (_ bv1 64))))(let ((.def_701 (= |main::__CPAchecker_TMP_0@3| |main::bVar1@5|)))(let ((.def_699 (= |main::iVar2@5| |main::counter@6|)))(let ((.def_691 (bvslt |main::counter@5| (_ bv1 32))))(let ((.def_692 (ite .def_691 (_ bv1 32) (_ bv0 32))))(let ((.def_693 (= .def_692 (_ bv0 32))))(let ((.def_694 (ite .def_693 (_ bv0 8) (_ bv1 8))))(let ((.def_696 (= .def_694 |main::bVar1@5|)))(let ((.def_687 (bvadd (_ bv1 32) |main::counter@5|)))(let ((.def_689 (= .def_687 |main::iVar2@5|)))(let ((.def_684 (= |main::counter@5| (_ bv0 32))))(let ((.def_682 (= |main::_x@5| (_ bv1 32))))(let ((.def_680 (= |main::s@5| (_ bv0 64))))(let ((.def_678 (= |main::r@5| (_ bv0 64))))(let ((.def_676 (= |main::q@5| (_ bv1 64))))(let ((.def_674 (= .def_38 |main::p@5|)))(let ((.def_672 (= .def_34 |main::b@5|)))(let ((.def_668 (= |assume::cond@4| (_ bv0 32))))(let ((.def_670 (not .def_668)))(let ((.def_24 (bvslt (_ bv0 32) |main::local_4c@2|)))(let ((.def_25 (ite .def_24 (_ bv1 32) (_ bv0 32))))(let ((.def_666 (= .def_25 |assume::cond@4|)))(let ((.def_17 (= |assume::cond@2| (_ bv0 32))))(let ((.def_20 (not .def_17)))(let ((.def_13 (bvslt (_ bv0 32) |main::tmp_var_2_int@2|)))(let ((.def_14 (ite .def_13 (_ bv1 32) (_ bv0 32))))(let ((.def_16 (= .def_14 |assume::cond@2|)))(let ((.def_21 (and .def_16 .def_20)))(let ((.def_667 (and .def_21 .def_666)))(let ((.def_671 (and .def_667 .def_670)))(let ((.def_673 (and .def_671 .def_672)))(let ((.def_675 (and .def_673 .def_674)))(let ((.def_677 (and .def_675 .def_676)))(let ((.def_679 (and .def_677 .def_678)))(let ((.def_681 (and .def_679 .def_680)))(let ((.def_683 (and .def_681 .def_682)))(let ((.def_685 (and .def_683 .def_684)))(let ((.def_690 (and .def_685 .def_689)))(let ((.def_697 (and .def_690 .def_696)))(let ((.def_700 (and .def_697 .def_699)))(let ((.def_702 (and .def_700 .def_701)))(let ((.def_80 (= |main::__CPAchecker_TMP_0@3| (_ bv0 8))))(let ((.def_83 (not .def_80)))(let ((.def_703 (and .def_83 .def_702)))(let ((.def_714 (and .def_703 .def_711)))(let ((.def_721 (and .def_714 .def_718)))(let ((.def_729 (and .def_721 .def_726)))(let ((.def_733 (and .def_729 .def_732)))(let ((.def_737 (and .def_733 .def_736)))(let ((.def_743 (and .def_737 .def_742)))(let ((.def_749 (and .def_743 .def_748)))(let ((.def_756 (and .def_749 .def_755)))(let ((.def_761 (and .def_756 .def_760)))(let ((.def_768 (and .def_761 .def_767)))(let ((.def_771 (and .def_768 .def_770)))(let ((.def_773 (and .def_771 .def_772)))(let ((.def_432 (= |main::__CPAchecker_TMP_0@5| (_ bv0 8))))(let ((.def_774 (and .def_432 .def_773)))(let ((.def_778 (and .def_774 .def_776))).def_778)))))))))))))))))))))))))))))))))))))))))))))))))))))))))))))))))))))))))))))))))))))))))))))))))))))